% File represents an instance of a Composite Structure problem to be solved by a CP framework
% Created on 2025-03-26 10:41:28.473
T = 50;
n = 25;
m = 40;
edges = [(1, 2),
(6, 7),
(11, 12),
(16, 17),
(21, 22),
(2, 3),
(7, 8),
(12, 13),
(17, 18),
(22, 23),
(3, 4),
(8, 9),
(13, 14),
(18, 19),
(23, 24),
(4, 5),
(10, 9),
(15, 14),
(20, 19),
(24, 25),
(6, 1),
(11, 6),
(16, 11),
(21, 16),
(2, 7),
(12, 7),
(17, 12),
(22, 17),
(3, 8),
(13, 8),
(18, 13),
(23, 18),
(4, 9),
(14, 9),
(19, 14),
(24, 19),
(10, 5),
(15, 10),
(20, 15),
(20, 25)];
counts = [|8, 6, 8, 8,
|8, 6, 8, 6,
|8, 4, 8, 6,
|6, 4, 6, 4,
|6, 2, 6, 4,
|8, 6, 8, 10,
|8, 6, 8, 4,
|8, 4, 8, 2,
|6, 2, 6, 2,
|8, 2, 8, 4,
|10, 8, 10, 10,
|10, 8, 10, 4,
|10, 4, 10, 4,
|8, 2, 8, 4,
|10, 2, 10, 6,
|12, 8, 12, 12,
|12, 8, 12, 6,
|12, 6, 12, 4,
|10, 4, 10, 4,
|10, 6, 10, 6,
|14, 8, 14, 14,
|14, 8, 14, 8,
|14, 6, 14, 6,
|12, 6, 12, 4,
|10, 6, 10, 2|];
